40
1 613 700
2 969 639
3 445 900
4 457 286
5 474 524
6 658 890
7 1 50
8 177 978
9 371 835
10 269 842
11 214 728
12 853 423
13 915 610
14 869 746
15 763 895
16 185 643
17 481 70
18 891 953
19 787 220
20 194 485
21 894 700
22 403 952
23 320 133
24 325 540
25 95 4
26 266 366
27 647 162
28 879 822
29 839 560
30 756 223
31 962 315
32 489 540
33 529 363
34 45 681
35 333 623
36 283 644
37 136 582
38 917 275
39 696 597
40 211 741
